(set-info :smt-lib-version 2.6)
(set-logic QF_S)
(set-info :source |
Generated by: Hung-En Wang, Tzung-Lin Tsai, Chun-Han Lin, Fang Yu, and Jie-Hong R. Jiang
Generated on: 2019-02-28
Generator: Stranger
Application: Security analysis of string manipulating web applications
Target solver: CVC4, Norn, Z3-str2
Publication:
Hung-En Wang, Tzung-Lin Tsai, Chun-Han Lin, Fang Yu, Jie-Hong R. Jiang:
String Analysis via Automata Manipulation with Logic Circuit Representation. CAV (1) 2016: 241-260.
|)
(set-info :license "https://creativecommons.org/licenses/by/4.0/")
(set-info :category "industrial")
(set-info :status unknown)

(declare-fun sigmaStar_0 () String)
(declare-fun sigmaStar_5 () String)
(declare-fun x_2 () String)
(declare-fun epsilon () String)
(declare-fun literal_7 () String)
(declare-fun x_6 () String)
(declare-fun x_8 () String)
(declare-fun sigmaStar_12 () String)
(declare-fun literal_11 () String)
(declare-fun x_14 () String)
(declare-fun x_13 () String)
(declare-fun x_15 () String)
(declare-fun literal_16 () String)
(declare-fun x_17 () String)
(declare-fun x_18 () String)
(declare-fun literal_19 () String)
(declare-fun x_20 () String)
(assert (= epsilon ""))
(assert (= x_2 epsilon))
(assert (= x_6 (str.replace x_2 "\u{40}" "\u{26}\u{23}\u{36}\u{34}\u{3b}")))
(assert (= literal_7 "\u{5b}\u{20}\u{3c}\u{61}\u{20}\u{68}\u{72}\u{65}\u{66}\u{3d}\u{27}\u{6d}\u{61}\u{69}\u{6c}\u{74}\u{6f}\u{3a}"))
(assert (= x_8 (str.++ literal_7 x_6)))
(assert (= x_13 (str.replace x_2 "\u{40}" "\u{26}\u{23}\u{36}\u{34}\u{3b}")))
(assert (= literal_11 "\u{27}\u{20}\u{74}\u{69}\u{74}\u{6c}\u{65}\u{3d}\u{27}"))
(assert (= x_14 (str.++ x_8 literal_11)))
(assert (= x_15 (str.++ x_14 x_13)))
(assert (= literal_16 "\u{27}\u{3e}"))
(assert (= x_17 (str.++ x_15 literal_16)))
(assert (= x_18 (str.++ x_17 sigmaStar_0)))
(assert (= literal_19 "\u{3c}\u{2f}\u{61}\u{3e}\u{20}\u{5d}\u{5c}\u{6e}"))
(assert (= x_20 (str.++ x_18 literal_19)))
(assert (str.in_re x_20 (re.++ (re.* re.allchar) (re.++ (str.to_re "\u{5c}\u{3c}\u{53}\u{43}\u{52}\u{49}\u{50}\u{54}") (re.* re.allchar)))))
(check-sat)
(exit)
